17037.0
1 0 1 0 1 1 0 1 1 1 0 1 0 0 1 0 1 1 0 0 1 0 1 0 1 1 0 0 1 1 
20 11 16 2 20 5 2 9 28 17 22 16 8 20 17 14 14 17 5 11 2 0 5 17 5 8 2 24 5 24 29 25 20 25 20 8 24 24 0 14 0 14 24 28 24 14 4 20 11 8 29 14 14 5 8 20 17 11 0 14 0 24 20 11 11 11 9 0 22 9 20 8 11 17 24 8 9 20 14 24 20 7 20 17 17 0 17 4 20 5 2 24 17 11 17 5 2 2 25 16 8 17 17 25 2 29 7 11 14 28 14 14 2 11 11 25 24 24 24 5 5 8 25 20 16 0 5 9 0 29 0 11 24 5 8 14 17 5 8 17 0 8 20 14 8 25 25 11 2 5 